NAME Model5
ROWS
 N  OBJ
 E  c0      
 E  c1      
 E  c2      
 E  c3      
 E  c4      
 E  c5      
 E  c6      
 E  c7      
 E  c8      
 L  c9      
 L  c10     
 L  c11     
 L  c12     
 L  c13     
 L  c14     
 L  c15     
 L  c16     
 L  c17     
 L  c18     
 L  c19     
 L  c20     
 L  c21     
 L  c22     
 L  c23     
 L  c24     
 L  c25     
 L  c26     
 G  c27     
 G  c28     
 G  c29     
 G  c30     
 G  c31     
 G  c32     
 G  c33     
 G  c34     
 G  c35     
 G  c36     
 G  c37     
 G  c38     
 G  c39     
 G  c40     
 G  c41     
 G  c42     
 G  c43     
 G  c44     
 G  c45     
 G  c46     
 G  c47     
 G  c48     
 G  c49     
 G  c50     
 G  c51     
 G  c52     
 G  c53     
 G  c54     
 G  c55     
 G  c56     
 G  c57     
 G  c58     
 G  c59     
 G  c60     
 G  c61     
 G  c62     
 G  c63     
 G  c64     
 G  c65     
 G  c66     
 G  c67     
 G  c68     
 G  c69     
 G  c70     
 G  c71     
 G  c72     
 G  c73     
 G  c74     
 G  c75     
 G  c76     
 G  c77     
 G  c78     
 G  c79     
 G  c80     
 G  c81     
 G  c82     
 G  c83     
 G  c84     
 G  c85     
 G  c86     
 G  c87     
 G  c88     
 G  c89     
 G  c90     
 G  c91     
 G  c92     
 G  c93     
 G  c94     
 G  c95     
 G  c96     
 G  c97     
 G  c98     
 G  c99     
 G  c100    
 G  c101    
 G  c102    
 G  c103    
 G  c104    
 G  c105    
 G  c106    
 G  c107    
 G  c108    
 G  c109    
 G  c110    
 G  c111    
 G  c112    
 G  c113    
 G  c114    
 G  c115    
 G  c116    
 G  c117    
 G  c118    
 G  c119    
 G  c120    
 G  c121    
 G  c122    
 G  c123    
 G  c124    
 G  c125    
 G  c126    
 G  c127    
 G  c128    
 G  c129    
 G  c130    
 G  c131    
 G  c132    
 G  c133    
 G  c134    
 G  c135    
 G  c136    
 G  c137    
 G  c138    
 G  c139    
 G  c140    
 G  c141    
 G  c142    
 G  c143    
 G  c144    
 G  c145    
 G  c146    
 G  c147    
 G  c148    
 G  c149    
 G  c150    
 G  c151    
 G  c152    
 G  c153    
 G  c154    
 G  c155    
 G  c156    
 G  c157    
 G  c158    
 G  c159    
 G  c160    
 G  c161    
 G  c162    
 G  c163    
 G  c164    
 G  c165    
 G  c166    
 G  c167    
 G  c168    
 G  c169    
 G  c170    
 G  c171    
 G  c172    
 G  c173    
 G  c174    
 G  c175    
 L  c176    
 G  c177    
 L  c178    
 G  c179    
 L  c180    
 G  c181    
 L  c182    
 G  c183    
 L  c184    
 G  c185    
 L  c186    
 G  OF_constraint
COLUMNS
    MARKER    'MARKER'                 'INTORG'
    y[0,0,1]  c0        1
    y[0,0,1]  c9        -1000000
    y[0,0,1]  c27       -1000000
    y[0,0,1]  c28       -1000000
    y[0,0,1]  c29       -1000000
    y[0,0,1]  c30       -1000000
    y[0,0,1]  c31       -1000000
    y[0,0,1]  c32       -1000000
    y[0,0,1]  c35       -1000000
    y[0,0,1]  c36       -1000000
    y[0,0,1]  c39       -1000000
    y[0,0,1]  c40       -1000000
    y[0,0,1]  c43       -1000000
    y[0,0,1]  c44       -1000000
    y[0,0,1]  c47       -1000000
    y[0,0,1]  c48       -1000000
    y[0,0,1]  c49       -1000000
    y[0,0,1]  c50       -1000000
    y[0,0,1]  c71       -1000000
    y[0,0,1]  c72       -1000000
    y[0,0,1]  c175      50
    y[0,0,1]  c176      50
    y[0,0,2]  c0        1
    y[0,0,2]  c10       -1000000
    y[0,0,2]  c33       -1000000
    y[0,0,2]  c34       -1000000
    y[0,0,2]  c37       -1000000
    y[0,0,2]  c38       -1000000
    y[0,0,2]  c41       -1000000
    y[0,0,2]  c42       -1000000
    y[0,0,2]  c45       -1000000
    y[0,0,2]  c46       -1000000
    y[0,0,2]  c177      60
    y[0,0,2]  c178      60
    y[0,1,0]  c1        1
    y[0,1,0]  c11       -1000000
    y[0,1,0]  c51       -1000000
    y[0,1,0]  c52       -1000000
    y[0,1,0]  c57       -1000000
    y[0,1,0]  c58       -1000000
    y[0,1,0]  c61       -1000000
    y[0,1,0]  c62       -1000000
    y[0,1,0]  c67       -1000000
    y[0,1,0]  c68       -1000000
    y[0,1,0]  c73       -1000000
    y[0,1,0]  c74       -1000000
    y[0,1,0]  c169      -40
    y[0,1,1]  c1        1
    y[0,1,1]  c12       -1000000
    y[0,1,1]  c27       -1000000
    y[0,1,1]  c28       -1000000
    y[0,1,1]  c49       -1000000
    y[0,1,1]  c50       -1000000
    y[0,1,1]  c53       -1000000
    y[0,1,1]  c54       -1000000
    y[0,1,1]  c55       -1000000
    y[0,1,1]  c56       -1000000
    y[0,1,1]  c59       -1000000
    y[0,1,1]  c60       -1000000
    y[0,1,1]  c63       -1000000
    y[0,1,1]  c64       -1000000
    y[0,1,1]  c65       -1000000
    y[0,1,1]  c66       -1000000
    y[0,1,1]  c69       -1000000
    y[0,1,1]  c70       -1000000
    y[0,1,1]  c75       -1000000
    y[0,1,1]  c76       -1000000
    y[0,1,1]  c169      -30
    y[0,2,0]  c2        1
    y[0,2,0]  c13       -1000000
    y[0,2,0]  c51       -1000000
    y[0,2,0]  c52       -1000000
    y[0,2,0]  c73       -1000000
    y[0,2,0]  c74       -1000000
    y[0,2,0]  c79       -1000000
    y[0,2,0]  c80       -1000000
    y[0,2,0]  c83       -1000000
    y[0,2,0]  c84       -1000000
    y[0,2,0]  c89       -1000000
    y[0,2,0]  c90       -1000000
    y[0,2,0]  c150      -480
    y[0,2,0]  c170      -17
    y[0,2,1]  c2        1
    y[0,2,1]  c14       -1000000
    y[0,2,1]  c29       -1000000
    y[0,2,1]  c30       -1000000
    y[0,2,1]  c53       -1000000
    y[0,2,1]  c54       -1000000
    y[0,2,1]  c71       -1000000
    y[0,2,1]  c72       -1000000
    y[0,2,1]  c75       -1000000
    y[0,2,1]  c76       -1000000
    y[0,2,1]  c77       -1000000
    y[0,2,1]  c78       -1000000
    y[0,2,1]  c81       -1000000
    y[0,2,1]  c82       -1000000
    y[0,2,1]  c85       -1000000
    y[0,2,1]  c86       -1000000
    y[0,2,1]  c87       -1000000
    y[0,2,1]  c88       -1000000
    y[0,2,1]  c91       -1000000
    y[0,2,1]  c92       -1000000
    y[0,2,1]  c152      -480
    y[0,2,1]  c170      -25
    y[1,0,1]  c3        1
    y[1,0,1]  c15       -1000000
    y[1,0,1]  c31       -1000000
    y[1,0,1]  c32       -1000000
    y[1,0,1]  c55       -1000000
    y[1,0,1]  c56       -1000000
    y[1,0,1]  c77       -1000000
    y[1,0,1]  c78       -1000000
    y[1,0,1]  c93       -1000000
    y[1,0,1]  c94       -1000000
    y[1,0,1]  c97       -1000000
    y[1,0,1]  c98       -1000000
    y[1,0,1]  c101      -1000000
    y[1,0,1]  c102      -1000000
    y[1,0,1]  c105      -1000000
    y[1,0,1]  c106      -1000000
    y[1,0,1]  c107      -1000000
    y[1,0,1]  c108      -1000000
    y[1,0,1]  c179      70
    y[1,0,1]  c180      70
    y[1,0,2]  c3        1
    y[1,0,2]  c16       -1000000
    y[1,0,2]  c33       -1000000
    y[1,0,2]  c34       -1000000
    y[1,0,2]  c95       -1000000
    y[1,0,2]  c96       -1000000
    y[1,0,2]  c99       -1000000
    y[1,0,2]  c100      -1000000
    y[1,0,2]  c103      -1000000
    y[1,0,2]  c104      -1000000
    y[1,0,2]  c119      -1000000
    y[1,0,2]  c120      -1000000
    y[1,0,2]  c181      60
    y[1,0,2]  c182      60
    y[1,1,0]  c4        1
    y[1,1,0]  c17       -1000000
    y[1,1,0]  c57       -1000000
    y[1,1,0]  c58       -1000000
    y[1,1,0]  c79       -1000000
    y[1,1,0]  c80       -1000000
    y[1,1,0]  c109      -1000000
    y[1,1,0]  c110      -1000000
    y[1,1,0]  c115      -1000000
    y[1,1,0]  c116      -1000000
    y[1,1,0]  c121      -1000000
    y[1,1,0]  c122      -1000000
    y[1,1,0]  c171      -50
    y[1,1,1]  c4        1
    y[1,1,1]  c18       -1000000
    y[1,1,1]  c35       -1000000
    y[1,1,1]  c36       -1000000
    y[1,1,1]  c59       -1000000
    y[1,1,1]  c60       -1000000
    y[1,1,1]  c81       -1000000
    y[1,1,1]  c82       -1000000
    y[1,1,1]  c93       -1000000
    y[1,1,1]  c94       -1000000
    y[1,1,1]  c107      -1000000
    y[1,1,1]  c108      -1000000
    y[1,1,1]  c111      -1000000
    y[1,1,1]  c112      -1000000
    y[1,1,1]  c113      -1000000
    y[1,1,1]  c114      -1000000
    y[1,1,1]  c117      -1000000
    y[1,1,1]  c118      -1000000
    y[1,1,1]  c171      -60
    y[1,2,0]  c5        1
    y[1,2,0]  c19       -1000000
    y[1,2,0]  c61       -1000000
    y[1,2,0]  c62       -1000000
    y[1,2,0]  c83       -1000000
    y[1,2,0]  c84       -1000000
    y[1,2,0]  c109      -1000000
    y[1,2,0]  c110      -1000000
    y[1,2,0]  c121      -1000000
    y[1,2,0]  c122      -1000000
    y[1,2,0]  c127      -1000000
    y[1,2,0]  c128      -1000000
    y[1,2,0]  c158      -480
    y[1,2,0]  c172      -30
    y[1,2,2]  c5        1
    y[1,2,2]  c20       -1000000
    y[1,2,2]  c37       -1000000
    y[1,2,2]  c38       -1000000
    y[1,2,2]  c95       -1000000
    y[1,2,2]  c96       -1000000
    y[1,2,2]  c119      -1000000
    y[1,2,2]  c120      -1000000
    y[1,2,2]  c123      -1000000
    y[1,2,2]  c124      -1000000
    y[1,2,2]  c125      -1000000
    y[1,2,2]  c126      -1000000
    y[1,2,2]  c160      -480
    y[1,2,2]  c172      -50
    y[2,0,1]  c6        1
    y[2,0,1]  c21       -1000000
    y[2,0,1]  c39       -1000000
    y[2,0,1]  c40       -1000000
    y[2,0,1]  c63       -1000000
    y[2,0,1]  c64       -1000000
    y[2,0,1]  c85       -1000000
    y[2,0,1]  c86       -1000000
    y[2,0,1]  c97       -1000000
    y[2,0,1]  c98       -1000000
    y[2,0,1]  c111      -1000000
    y[2,0,1]  c112      -1000000
    y[2,0,1]  c129      -1000000
    y[2,0,1]  c130      -1000000
    y[2,0,1]  c133      -1000000
    y[2,0,1]  c134      -1000000
    y[2,0,1]  c135      -1000000
    y[2,0,1]  c136      -1000000
    y[2,0,1]  c141      -1000000
    y[2,0,1]  c142      -1000000
    y[2,0,1]  c183      90
    y[2,0,1]  c184      90
    y[2,0,2]  c6        1
    y[2,0,2]  c22       -1000000
    y[2,0,2]  c41       -1000000
    y[2,0,2]  c42       -1000000
    y[2,0,2]  c99       -1000000
    y[2,0,2]  c100      -1000000
    y[2,0,2]  c123      -1000000
    y[2,0,2]  c124      -1000000
    y[2,0,2]  c131      -1000000
    y[2,0,2]  c132      -1000000
    y[2,0,2]  c137      -1000000
    y[2,0,2]  c138      -1000000
    y[2,0,2]  c185      100
    y[2,0,2]  c186      100
    y[2,1,1]  c7        1
    y[2,1,1]  c23       -1000000
    y[2,1,1]  c43       -1000000
    y[2,1,1]  c44       -1000000
    y[2,1,1]  c65       -1000000
    y[2,1,1]  c66       -1000000
    y[2,1,1]  c87       -1000000
    y[2,1,1]  c88       -1000000
    y[2,1,1]  c101      -1000000
    y[2,1,1]  c102      -1000000
    y[2,1,1]  c113      -1000000
    y[2,1,1]  c114      -1000000
    y[2,1,1]  c129      -1000000
    y[2,1,1]  c130      -1000000
    y[2,1,1]  c135      -1000000
    y[2,1,1]  c136      -1000000
    y[2,1,1]  c139      -1000000
    y[2,1,1]  c140      -1000000
    y[2,1,1]  c143      -1000000
    y[2,1,1]  c144      -1000000
    y[2,1,1]  c173      -70
    y[2,1,2]  c7        1
    y[2,1,2]  c24       -1000000
    y[2,1,2]  c45       -1000000
    y[2,1,2]  c46       -1000000
    y[2,1,2]  c103      -1000000
    y[2,1,2]  c104      -1000000
    y[2,1,2]  c125      -1000000
    y[2,1,2]  c126      -1000000
    y[2,1,2]  c131      -1000000
    y[2,1,2]  c132      -1000000
    y[2,1,2]  c137      -1000000
    y[2,1,2]  c138      -1000000
    y[2,1,2]  c173      -80
    y[2,2,0]  c8        1
    y[2,2,0]  c25       -1000000
    y[2,2,0]  c67       -1000000
    y[2,2,0]  c68       -1000000
    y[2,2,0]  c89       -1000000
    y[2,2,0]  c90       -1000000
    y[2,2,0]  c115      -1000000
    y[2,2,0]  c116      -1000000
    y[2,2,0]  c127      -1000000
    y[2,2,0]  c128      -1000000
    y[2,2,0]  c166      -480
    y[2,2,0]  c174      -50
    y[2,2,1]  c8        1
    y[2,2,1]  c26       -1000000
    y[2,2,1]  c47       -1000000
    y[2,2,1]  c48       -1000000
    y[2,2,1]  c69       -1000000
    y[2,2,1]  c70       -1000000
    y[2,2,1]  c91       -1000000
    y[2,2,1]  c92       -1000000
    y[2,2,1]  c105      -1000000
    y[2,2,1]  c106      -1000000
    y[2,2,1]  c117      -1000000
    y[2,2,1]  c118      -1000000
    y[2,2,1]  c133      -1000000
    y[2,2,1]  c134      -1000000
    y[2,2,1]  c139      -1000000
    y[2,2,1]  c140      -1000000
    y[2,2,1]  c141      -1000000
    y[2,2,1]  c142      -1000000
    y[2,2,1]  c143      -1000000
    y[2,2,1]  c144      -1000000
    y[2,2,1]  c168      -480
    y[2,2,1]  c174      -60
    x[0,0,0,0]  OBJ       0
    x[0,0,0,1]  c27       -1000000
    x[0,0,0,1]  c28       1000000
    x[0,0,0,2]  c29       -1000000
    x[0,0,0,2]  c30       1000000
    x[0,0,1,0]  c31       -1000000
    x[0,0,1,0]  c32       1000000
    x[0,0,1,0]  c33       -1000000
    x[0,0,1,0]  c34       1000000
    x[0,0,1,1]  c35       -1000000
    x[0,0,1,1]  c36       1000000
    x[0,0,1,2]  c37       -1000000
    x[0,0,1,2]  c38       1000000
    x[0,0,2,0]  c39       -1000000
    x[0,0,2,0]  c40       1000000
    x[0,0,2,0]  c41       -1000000
    x[0,0,2,0]  c42       1000000
    x[0,0,2,1]  c43       -1000000
    x[0,0,2,1]  c44       1000000
    x[0,0,2,1]  c45       -1000000
    x[0,0,2,1]  c46       1000000
    x[0,0,2,2]  c47       -1000000
    x[0,0,2,2]  c48       1000000
    x[0,1,0,0]  c49       -1000000
    x[0,1,0,0]  c50       1000000
    x[0,1,0,1]  OBJ       0
    x[0,1,0,2]  c51       -1000000
    x[0,1,0,2]  c52       1000000
    x[0,1,0,2]  c53       -1000000
    x[0,1,0,2]  c54       1000000
    x[0,1,1,0]  c55       -1000000
    x[0,1,1,0]  c56       1000000
    x[0,1,1,1]  c57       -1000000
    x[0,1,1,1]  c58       1000000
    x[0,1,1,1]  c59       -1000000
    x[0,1,1,1]  c60       1000000
    x[0,1,1,2]  c61       -1000000
    x[0,1,1,2]  c62       1000000
    x[0,1,2,0]  c63       -1000000
    x[0,1,2,0]  c64       1000000
    x[0,1,2,1]  c65       -1000000
    x[0,1,2,1]  c66       1000000
    x[0,1,2,2]  c67       -1000000
    x[0,1,2,2]  c68       1000000
    x[0,1,2,2]  c69       -1000000
    x[0,1,2,2]  c70       1000000
    x[0,2,0,0]  c71       -1000000
    x[0,2,0,0]  c72       1000000
    x[0,2,0,1]  c73       -1000000
    x[0,2,0,1]  c74       1000000
    x[0,2,0,1]  c75       -1000000
    x[0,2,0,1]  c76       1000000
    x[0,2,0,2]  OBJ       0
    x[0,2,1,0]  c77       -1000000
    x[0,2,1,0]  c78       1000000
    x[0,2,1,1]  c79       -1000000
    x[0,2,1,1]  c80       1000000
    x[0,2,1,1]  c81       -1000000
    x[0,2,1,1]  c82       1000000
    x[0,2,1,2]  c83       -1000000
    x[0,2,1,2]  c84       1000000
    x[0,2,2,0]  c85       -1000000
    x[0,2,2,0]  c86       1000000
    x[0,2,2,1]  c87       -1000000
    x[0,2,2,1]  c88       1000000
    x[0,2,2,2]  c89       -1000000
    x[0,2,2,2]  c90       1000000
    x[0,2,2,2]  c91       -1000000
    x[0,2,2,2]  c92       1000000
    x[1,0,0,0]  OBJ       0
    x[1,0,0,1]  OBJ       0
    x[1,0,0,2]  OBJ       0
    x[1,0,1,0]  OBJ       0
    x[1,0,1,1]  c93       -1000000
    x[1,0,1,1]  c94       1000000
    x[1,0,1,2]  c95       -1000000
    x[1,0,1,2]  c96       1000000
    x[1,0,2,0]  c97       -1000000
    x[1,0,2,0]  c98       1000000
    x[1,0,2,0]  c99       -1000000
    x[1,0,2,0]  c100      1000000
    x[1,0,2,1]  c101      -1000000
    x[1,0,2,1]  c102      1000000
    x[1,0,2,1]  c103      -1000000
    x[1,0,2,1]  c104      1000000
    x[1,0,2,2]  c105      -1000000
    x[1,0,2,2]  c106      1000000
    x[1,1,0,0]  OBJ       0
    x[1,1,0,1]  OBJ       0
    x[1,1,0,2]  OBJ       0
    x[1,1,1,0]  c107      -1000000
    x[1,1,1,0]  c108      1000000
    x[1,1,1,1]  OBJ       0
    x[1,1,1,2]  c109      -1000000
    x[1,1,1,2]  c110      1000000
    x[1,1,2,0]  c111      -1000000
    x[1,1,2,0]  c112      1000000
    x[1,1,2,1]  c113      -1000000
    x[1,1,2,1]  c114      1000000
    x[1,1,2,2]  c115      -1000000
    x[1,1,2,2]  c116      1000000
    x[1,1,2,2]  c117      -1000000
    x[1,1,2,2]  c118      1000000
    x[1,2,0,0]  OBJ       0
    x[1,2,0,1]  OBJ       0
    x[1,2,0,2]  OBJ       0
    x[1,2,1,0]  c119      -1000000
    x[1,2,1,0]  c120      1000000
    x[1,2,1,1]  c121      -1000000
    x[1,2,1,1]  c122      1000000
    x[1,2,1,2]  OBJ       0
    x[1,2,2,0]  c123      -1000000
    x[1,2,2,0]  c124      1000000
    x[1,2,2,1]  c125      -1000000
    x[1,2,2,1]  c126      1000000
    x[1,2,2,2]  c127      -1000000
    x[1,2,2,2]  c128      1000000
    x[2,0,0,0]  OBJ       0
    x[2,0,0,1]  OBJ       0
    x[2,0,0,2]  OBJ       0
    x[2,0,1,0]  OBJ       0
    x[2,0,1,1]  OBJ       0
    x[2,0,1,2]  OBJ       0
    x[2,0,2,0]  OBJ       0
    x[2,0,2,1]  c129      -1000000
    x[2,0,2,1]  c130      1000000
    x[2,0,2,1]  c131      -1000000
    x[2,0,2,1]  c132      1000000
    x[2,0,2,2]  c133      -1000000
    x[2,0,2,2]  c134      1000000
    x[2,1,0,0]  OBJ       0
    x[2,1,0,1]  OBJ       0
    x[2,1,0,2]  OBJ       0
    x[2,1,1,0]  OBJ       0
    x[2,1,1,1]  OBJ       0
    x[2,1,1,2]  OBJ       0
    x[2,1,2,0]  c135      -1000000
    x[2,1,2,0]  c136      1000000
    x[2,1,2,0]  c137      -1000000
    x[2,1,2,0]  c138      1000000
    x[2,1,2,1]  OBJ       0
    x[2,1,2,2]  c139      -1000000
    x[2,1,2,2]  c140      1000000
    x[2,2,0,0]  OBJ       0
    x[2,2,0,1]  OBJ       0
    x[2,2,0,2]  OBJ       0
    x[2,2,1,0]  OBJ       0
    x[2,2,1,1]  OBJ       0
    x[2,2,1,2]  OBJ       0
    x[2,2,2,0]  c141      -1000000
    x[2,2,2,0]  c142      1000000
    x[2,2,2,1]  c143      -1000000
    x[2,2,2,1]  c144      1000000
    x[2,2,2,2]  OBJ       0
    MARKER    'MARKER'                 'INTEND'
    s[0,0,1]  c9        1
    s[0,0,1]  c27       1
    s[0,0,1]  c28       -1
    s[0,0,1]  c29       1
    s[0,0,1]  c30       -1
    s[0,0,1]  c31       1
    s[0,0,1]  c32       -1
    s[0,0,1]  c35       1
    s[0,0,1]  c36       -1
    s[0,0,1]  c39       1
    s[0,0,1]  c40       -1
    s[0,0,1]  c43       1
    s[0,0,1]  c44       -1
    s[0,0,1]  c47       1
    s[0,0,1]  c48       -1
    s[0,0,1]  c49       -1
    s[0,0,1]  c50       1
    s[0,0,1]  c71       -1
    s[0,0,1]  c72       1
    s[0,0,1]  c145      1
    s[0,0,1]  c169      1
    s[0,0,1]  c175      1
    s[0,0,1]  c176      1
    s[0,0,2]  c10       1
    s[0,0,2]  c33       1
    s[0,0,2]  c34       -1
    s[0,0,2]  c37       1
    s[0,0,2]  c38       -1
    s[0,0,2]  c41       1
    s[0,0,2]  c42       -1
    s[0,0,2]  c45       1
    s[0,0,2]  c46       -1
    s[0,0,2]  c146      1
    s[0,0,2]  c169      1
    s[0,0,2]  c177      1
    s[0,0,2]  c178      1
    s[0,1,0]  c11       1
    s[0,1,0]  c51       1
    s[0,1,0]  c52       -1
    s[0,1,0]  c57       1
    s[0,1,0]  c58       -1
    s[0,1,0]  c61       1
    s[0,1,0]  c62       -1
    s[0,1,0]  c67       1
    s[0,1,0]  c68       -1
    s[0,1,0]  c73       -1
    s[0,1,0]  c74       1
    s[0,1,0]  c147      1
    s[0,1,0]  c169      -1
    s[0,1,0]  c170      1
    s[0,1,1]  c12       1
    s[0,1,1]  c27       -1
    s[0,1,1]  c28       1
    s[0,1,1]  c49       1
    s[0,1,1]  c50       -1
    s[0,1,1]  c53       1
    s[0,1,1]  c54       -1
    s[0,1,1]  c55       1
    s[0,1,1]  c56       -1
    s[0,1,1]  c59       1
    s[0,1,1]  c60       -1
    s[0,1,1]  c63       1
    s[0,1,1]  c64       -1
    s[0,1,1]  c65       1
    s[0,1,1]  c66       -1
    s[0,1,1]  c69       1
    s[0,1,1]  c70       -1
    s[0,1,1]  c75       -1
    s[0,1,1]  c76       1
    s[0,1,1]  c148      1
    s[0,1,1]  c169      -1
    s[0,1,1]  c170      1
    s[0,2,0]  c13       1
    s[0,2,0]  c51       -1
    s[0,2,0]  c52       1
    s[0,2,0]  c73       1
    s[0,2,0]  c74       -1
    s[0,2,0]  c79       1
    s[0,2,0]  c80       -1
    s[0,2,0]  c83       1
    s[0,2,0]  c84       -1
    s[0,2,0]  c89       1
    s[0,2,0]  c90       -1
    s[0,2,0]  c149      1
    s[0,2,0]  c150      1
    s[0,2,0]  c170      -1
    s[0,2,1]  c14       1
    s[0,2,1]  c29       -1
    s[0,2,1]  c30       1
    s[0,2,1]  c53       -1
    s[0,2,1]  c54       1
    s[0,2,1]  c71       1
    s[0,2,1]  c72       -1
    s[0,2,1]  c75       1
    s[0,2,1]  c76       -1
    s[0,2,1]  c77       1
    s[0,2,1]  c78       -1
    s[0,2,1]  c81       1
    s[0,2,1]  c82       -1
    s[0,2,1]  c85       1
    s[0,2,1]  c86       -1
    s[0,2,1]  c87       1
    s[0,2,1]  c88       -1
    s[0,2,1]  c91       1
    s[0,2,1]  c92       -1
    s[0,2,1]  c151      1
    s[0,2,1]  c152      1
    s[0,2,1]  c170      -1
    s[1,0,1]  c15       1
    s[1,0,1]  c31       -1
    s[1,0,1]  c32       1
    s[1,0,1]  c55       -1
    s[1,0,1]  c56       1
    s[1,0,1]  c77       -1
    s[1,0,1]  c78       1
    s[1,0,1]  c93       1
    s[1,0,1]  c94       -1
    s[1,0,1]  c97       1
    s[1,0,1]  c98       -1
    s[1,0,1]  c101      1
    s[1,0,1]  c102      -1
    s[1,0,1]  c105      1
    s[1,0,1]  c106      -1
    s[1,0,1]  c107      -1
    s[1,0,1]  c108      1
    s[1,0,1]  c153      1
    s[1,0,1]  c171      1
    s[1,0,1]  c179      1
    s[1,0,1]  c180      1
    s[1,0,2]  c16       1
    s[1,0,2]  c33       -1
    s[1,0,2]  c34       1
    s[1,0,2]  c95       1
    s[1,0,2]  c96       -1
    s[1,0,2]  c99       1
    s[1,0,2]  c100      -1
    s[1,0,2]  c103      1
    s[1,0,2]  c104      -1
    s[1,0,2]  c119      -1
    s[1,0,2]  c120      1
    s[1,0,2]  c154      1
    s[1,0,2]  c171      1
    s[1,0,2]  c181      1
    s[1,0,2]  c182      1
    s[1,1,0]  c17       1
    s[1,1,0]  c57       -1
    s[1,1,0]  c58       1
    s[1,1,0]  c79       -1
    s[1,1,0]  c80       1
    s[1,1,0]  c109      1
    s[1,1,0]  c110      -1
    s[1,1,0]  c115      1
    s[1,1,0]  c116      -1
    s[1,1,0]  c121      -1
    s[1,1,0]  c122      1
    s[1,1,0]  c155      1
    s[1,1,0]  c171      -1
    s[1,1,0]  c172      1
    s[1,1,1]  c18       1
    s[1,1,1]  c35       -1
    s[1,1,1]  c36       1
    s[1,1,1]  c59       -1
    s[1,1,1]  c60       1
    s[1,1,1]  c81       -1
    s[1,1,1]  c82       1
    s[1,1,1]  c93       -1
    s[1,1,1]  c94       1
    s[1,1,1]  c107      1
    s[1,1,1]  c108      -1
    s[1,1,1]  c111      1
    s[1,1,1]  c112      -1
    s[1,1,1]  c113      1
    s[1,1,1]  c114      -1
    s[1,1,1]  c117      1
    s[1,1,1]  c118      -1
    s[1,1,1]  c156      1
    s[1,1,1]  c171      -1
    s[1,1,1]  c172      1
    s[1,2,0]  c19       1
    s[1,2,0]  c61       -1
    s[1,2,0]  c62       1
    s[1,2,0]  c83       -1
    s[1,2,0]  c84       1
    s[1,2,0]  c109      -1
    s[1,2,0]  c110      1
    s[1,2,0]  c121      1
    s[1,2,0]  c122      -1
    s[1,2,0]  c127      1
    s[1,2,0]  c128      -1
    s[1,2,0]  c157      1
    s[1,2,0]  c158      1
    s[1,2,0]  c172      -1
    s[1,2,2]  c20       1
    s[1,2,2]  c37       -1
    s[1,2,2]  c38       1
    s[1,2,2]  c95       -1
    s[1,2,2]  c96       1
    s[1,2,2]  c119      1
    s[1,2,2]  c120      -1
    s[1,2,2]  c123      1
    s[1,2,2]  c124      -1
    s[1,2,2]  c125      1
    s[1,2,2]  c126      -1
    s[1,2,2]  c159      1
    s[1,2,2]  c160      1
    s[1,2,2]  c172      -1
    s[2,0,1]  c21       1
    s[2,0,1]  c39       -1
    s[2,0,1]  c40       1
    s[2,0,1]  c63       -1
    s[2,0,1]  c64       1
    s[2,0,1]  c85       -1
    s[2,0,1]  c86       1
    s[2,0,1]  c97       -1
    s[2,0,1]  c98       1
    s[2,0,1]  c111      -1
    s[2,0,1]  c112      1
    s[2,0,1]  c129      1
    s[2,0,1]  c130      -1
    s[2,0,1]  c133      1
    s[2,0,1]  c134      -1
    s[2,0,1]  c135      -1
    s[2,0,1]  c136      1
    s[2,0,1]  c141      -1
    s[2,0,1]  c142      1
    s[2,0,1]  c161      1
    s[2,0,1]  c173      1
    s[2,0,1]  c183      1
    s[2,0,1]  c184      1
    s[2,0,2]  c22       1
    s[2,0,2]  c41       -1
    s[2,0,2]  c42       1
    s[2,0,2]  c99       -1
    s[2,0,2]  c100      1
    s[2,0,2]  c123      -1
    s[2,0,2]  c124      1
    s[2,0,2]  c131      1
    s[2,0,2]  c132      -1
    s[2,0,2]  c137      -1
    s[2,0,2]  c138      1
    s[2,0,2]  c162      1
    s[2,0,2]  c173      1
    s[2,0,2]  c185      1
    s[2,0,2]  c186      1
    s[2,1,1]  c23       1
    s[2,1,1]  c43       -1
    s[2,1,1]  c44       1
    s[2,1,1]  c65       -1
    s[2,1,1]  c66       1
    s[2,1,1]  c87       -1
    s[2,1,1]  c88       1
    s[2,1,1]  c101      -1
    s[2,1,1]  c102      1
    s[2,1,1]  c113      -1
    s[2,1,1]  c114      1
    s[2,1,1]  c129      -1
    s[2,1,1]  c130      1
    s[2,1,1]  c135      1
    s[2,1,1]  c136      -1
    s[2,1,1]  c139      1
    s[2,1,1]  c140      -1
    s[2,1,1]  c143      -1
    s[2,1,1]  c144      1
    s[2,1,1]  c163      1
    s[2,1,1]  c173      -1
    s[2,1,1]  c174      1
    s[2,1,2]  c24       1
    s[2,1,2]  c45       -1
    s[2,1,2]  c46       1
    s[2,1,2]  c103      -1
    s[2,1,2]  c104      1
    s[2,1,2]  c125      -1
    s[2,1,2]  c126      1
    s[2,1,2]  c131      -1
    s[2,1,2]  c132      1
    s[2,1,2]  c137      1
    s[2,1,2]  c138      -1
    s[2,1,2]  c164      1
    s[2,1,2]  c173      -1
    s[2,1,2]  c174      1
    s[2,2,0]  c25       1
    s[2,2,0]  c67       -1
    s[2,2,0]  c68       1
    s[2,2,0]  c89       -1
    s[2,2,0]  c90       1
    s[2,2,0]  c115      -1
    s[2,2,0]  c116      1
    s[2,2,0]  c127      -1
    s[2,2,0]  c128      1
    s[2,2,0]  c165      1
    s[2,2,0]  c166      1
    s[2,2,0]  c174      -1
    s[2,2,1]  c26       1
    s[2,2,1]  c47       -1
    s[2,2,1]  c48       1
    s[2,2,1]  c69       -1
    s[2,2,1]  c70       1
    s[2,2,1]  c91       -1
    s[2,2,1]  c92       1
    s[2,2,1]  c105      -1
    s[2,2,1]  c106      1
    s[2,2,1]  c117      -1
    s[2,2,1]  c118      1
    s[2,2,1]  c133      -1
    s[2,2,1]  c134      1
    s[2,2,1]  c139      -1
    s[2,2,1]  c140      1
    s[2,2,1]  c141      1
    s[2,2,1]  c142      -1
    s[2,2,1]  c143      1
    s[2,2,1]  c144      -1
    s[2,2,1]  c167      1
    s[2,2,1]  c168      1
    s[2,2,1]  c174      -1
    MARKER    'MARKER'                 'INTORG'
    Z_FO      OBJ       1
    Z_FO      OF_constraint  1
    C118      c175      -1000000
    C118      c176      -1000000
    C118      OF_constraint  430
    C119      c177      -1000000
    C119      c178      -1000000
    C119      OF_constraint  420
    C120      c179      -1000000
    C120      c180      -1000000
    C120      OF_constraint  410
    C121      c181      -1000000
    C121      c182      -1000000
    C121      OF_constraint  420
    C122      c183      -1000000
    C122      c184      -1000000
    C122      OF_constraint  390
    C123      c185      -1000000
    C123      c186      -1000000
    C123      OF_constraint  380
    MARKER    'MARKER'                 'INTEND'
RHS
    RHS1      c0        1
    RHS1      c1        1
    RHS1      c2        1
    RHS1      c3        1
    RHS1      c4        1
    RHS1      c5        1
    RHS1      c6        1
    RHS1      c7        1
    RHS1      c8        1
    RHS1      c27       -2999900
    RHS1      c28       -1999702
    RHS1      c29       -2999655
    RHS1      c30       -1999848
    RHS1      c31       -2999785
    RHS1      c32       -1999775
    RHS1      c33       -2999865
    RHS1      c34       -1999853
    RHS1      c35       -2999692
    RHS1      c36       -1999598
    RHS1      c37       -2999906
    RHS1      c38       -1999766
    RHS1      c39       -2999780
    RHS1      c40       -1999700
    RHS1      c41       -2999630
    RHS1      c42       -1999853
    RHS1      c43       -2999854
    RHS1      c44       -1999562
    RHS1      c45       -2999595
    RHS1      c46       -1999845
    RHS1      c47       -2999545
    RHS1      c48       -1999834
    RHS1      c49       -2999702
    RHS1      c50       -1999900
    RHS1      c51       -2999698
    RHS1      c52       -1999699
    RHS1      c53       -2999896
    RHS1      c54       -1999874
    RHS1      c55       -2999747
    RHS1      c56       -1999535
    RHS1      c57       -2999674
    RHS1      c58       -1999848
    RHS1      c59       -2999775
    RHS1      c60       -1999640
    RHS1      c61       -2999953
    RHS1      c62       -1999852
    RHS1      c63       -2999808
    RHS1      c64       -1999870
    RHS1      c65       -2999888
    RHS1      c66       -1999884
    RHS1      c67       -2999558
    RHS1      c68       -1999711
    RHS1      c69       -2999608
    RHS1      c70       -1999882
    RHS1      c71       -2999848
    RHS1      c72       -1999655
    RHS1      c73       -2999699
    RHS1      c74       -1999698
    RHS1      c75       -2999874
    RHS1      c76       -1999896
    RHS1      c77       -2999842
    RHS1      c78       -1999857
    RHS1      c79       -2999550
    RHS1      c80       -1999948
    RHS1      c81       -2999923
    RHS1      c82       -1999931
    RHS1      c83       -2999876
    RHS1      c84       -1999513
    RHS1      c85       -2999622
    RHS1      c86       -1999815
    RHS1      c87       -2999863
    RHS1      c88       -1999881
    RHS1      c89       -2999630
    RHS1      c90       -1999919
    RHS1      c91       -2999768
    RHS1      c92       -1999803
    RHS1      c93       -2999850
    RHS1      c94       -1999893
    RHS1      c95       -2999931
    RHS1      c96       -1999784
    RHS1      c97       -2999728
    RHS1      c98       -1999574
    RHS1      c99       -2999711
    RHS1      c100      -1999660
    RHS1      c101      -2999566
    RHS1      c102      -1999822
    RHS1      c103      -2999778
    RHS1      c104      -1999850
    RHS1      c105      -2999766
    RHS1      c106      -1999864
    RHS1      c107      -2999893
    RHS1      c108      -1999850
    RHS1      c109      -2999748
    RHS1      c110      -1999912
    RHS1      c111      -2999802
    RHS1      c112      -1999588
    RHS1      c113      -2999830
    RHS1      c114      -1999772
    RHS1      c115      -2999852
    RHS1      c116      -1999786
    RHS1      c117      -2999760
    RHS1      c118      -1999450
    RHS1      c119      -2999784
    RHS1      c120      -1999931
    RHS1      c121      -2999912
    RHS1      c122      -1999748
    RHS1      c123      -2999770
    RHS1      c124      -1999686
    RHS1      c125      -2999900
    RHS1      c126      -1999450
    RHS1      c127      -2999719
    RHS1      c128      -1999574
    RHS1      c129      -2999866
    RHS1      c130      -1999602
    RHS1      c131      -2999652
    RHS1      c132      -1999720
    RHS1      c133      -2999896
    RHS1      c134      -1999830
    RHS1      c135      -2999602
    RHS1      c136      -1999866
    RHS1      c137      -2999720
    RHS1      c138      -1999652
    RHS1      c139      -2999868
    RHS1      c140      -1999670
    RHS1      c141      -2999830
    RHS1      c142      -1999896
    RHS1      c143      -2999670
    RHS1      c144      -1999868
    RHS1      c175      -999520
    RHS1      c176      480
    RHS1      c177      -999520
    RHS1      c178      480
    RHS1      c179      -999520
    RHS1      c180      480
    RHS1      c181      -999520
    RHS1      c182      480
    RHS1      c183      -999520
    RHS1      c184      480
    RHS1      c185      -999520
    RHS1      c186      480
BOUNDS
 BV BND1      y[0,0,1]
 BV BND1      y[0,0,2]
 BV BND1      y[0,1,0]
 BV BND1      y[0,1,1]
 BV BND1      y[0,2,0]
 BV BND1      y[0,2,1]
 BV BND1      y[1,0,1]
 BV BND1      y[1,0,2]
 BV BND1      y[1,1,0]
 BV BND1      y[1,1,1]
 BV BND1      y[1,2,0]
 BV BND1      y[1,2,2]
 BV BND1      y[2,0,1]
 BV BND1      y[2,0,2]
 BV BND1      y[2,1,1]
 BV BND1      y[2,1,2]
 BV BND1      y[2,2,0]
 BV BND1      y[2,2,1]
 BV BND1      x[0,0,0,0]
 BV BND1      x[0,0,0,1]
 BV BND1      x[0,0,0,2]
 BV BND1      x[0,0,1,0]
 BV BND1      x[0,0,1,1]
 BV BND1      x[0,0,1,2]
 BV BND1      x[0,0,2,0]
 BV BND1      x[0,0,2,1]
 BV BND1      x[0,0,2,2]
 BV BND1      x[0,1,0,0]
 BV BND1      x[0,1,0,1]
 BV BND1      x[0,1,0,2]
 BV BND1      x[0,1,1,0]
 BV BND1      x[0,1,1,1]
 BV BND1      x[0,1,1,2]
 BV BND1      x[0,1,2,0]
 BV BND1      x[0,1,2,1]
 BV BND1      x[0,1,2,2]
 BV BND1      x[0,2,0,0]
 BV BND1      x[0,2,0,1]
 BV BND1      x[0,2,0,2]
 BV BND1      x[0,2,1,0]
 BV BND1      x[0,2,1,1]
 BV BND1      x[0,2,1,2]
 BV BND1      x[0,2,2,0]
 BV BND1      x[0,2,2,1]
 BV BND1      x[0,2,2,2]
 BV BND1      x[1,0,0,0]
 BV BND1      x[1,0,0,1]
 BV BND1      x[1,0,0,2]
 BV BND1      x[1,0,1,0]
 BV BND1      x[1,0,1,1]
 BV BND1      x[1,0,1,2]
 BV BND1      x[1,0,2,0]
 BV BND1      x[1,0,2,1]
 BV BND1      x[1,0,2,2]
 BV BND1      x[1,1,0,0]
 BV BND1      x[1,1,0,1]
 BV BND1      x[1,1,0,2]
 BV BND1      x[1,1,1,0]
 BV BND1      x[1,1,1,1]
 BV BND1      x[1,1,1,2]
 BV BND1      x[1,1,2,0]
 BV BND1      x[1,1,2,1]
 BV BND1      x[1,1,2,2]
 BV BND1      x[1,2,0,0]
 BV BND1      x[1,2,0,1]
 BV BND1      x[1,2,0,2]
 BV BND1      x[1,2,1,0]
 BV BND1      x[1,2,1,1]
 BV BND1      x[1,2,1,2]
 BV BND1      x[1,2,2,0]
 BV BND1      x[1,2,2,1]
 BV BND1      x[1,2,2,2]
 BV BND1      x[2,0,0,0]
 BV BND1      x[2,0,0,1]
 BV BND1      x[2,0,0,2]
 BV BND1      x[2,0,1,0]
 BV BND1      x[2,0,1,1]
 BV BND1      x[2,0,1,2]
 BV BND1      x[2,0,2,0]
 BV BND1      x[2,0,2,1]
 BV BND1      x[2,0,2,2]
 BV BND1      x[2,1,0,0]
 BV BND1      x[2,1,0,1]
 BV BND1      x[2,1,0,2]
 BV BND1      x[2,1,1,0]
 BV BND1      x[2,1,1,1]
 BV BND1      x[2,1,1,2]
 BV BND1      x[2,1,2,0]
 BV BND1      x[2,1,2,1]
 BV BND1      x[2,1,2,2]
 BV BND1      x[2,2,0,0]
 BV BND1      x[2,2,0,1]
 BV BND1      x[2,2,0,2]
 BV BND1      x[2,2,1,0]
 BV BND1      x[2,2,1,1]
 BV BND1      x[2,2,1,2]
 BV BND1      x[2,2,2,0]
 BV BND1      x[2,2,2,1]
 BV BND1      x[2,2,2,2]
 LI BND1      Z_FO      0
 BV BND1      C118    
 BV BND1      C119    
 BV BND1      C120    
 BV BND1      C121    
 BV BND1      C122    
 BV BND1      C123    
QCMATRIX   OF_constraint
    s[0,0,1]  C118      -0.5
    C118      s[0,0,1]  -0.5
    s[0,0,2]  C119      -0.5
    C119      s[0,0,2]  -0.5
    s[1,0,1]  C120      -0.5
    C120      s[1,0,1]  -0.5
    s[1,0,2]  C121      -0.5
    C121      s[1,0,2]  -0.5
    s[2,0,1]  C122      -0.5
    C122      s[2,0,1]  -0.5
    s[2,0,2]  C123      -0.5
    C123      s[2,0,2]  -0.5
ENDATA
